; SWAP1 POP SWAP1 SWAP2 SWAP1 SWAP2 => SWAP3 SWAP2 SWAP1 POP
(set-option :produce-proofs true)
; 
(set-info :status unknown)
(declare-fun storage_t ((_ BitVec 256) (_ BitVec 256) (_ BitVec 256) (_ BitVec 256) Int (_ BitVec 256)) (_ BitVec 256))
(declare-fun storage_s ((_ BitVec 256) (_ BitVec 256) (_ BitVec 256) (_ BitVec 256) Int (_ BitVec 256)) (_ BitVec 256))
(declare-fun exc_halt_t (Int) Bool)
(declare-fun exc_halt_s (Int) Bool)
(declare-fun stack_t ((_ BitVec 256) (_ BitVec 256) (_ BitVec 256) (_ BitVec 256) Int (_ BitVec 6)) (_ BitVec 256))
(declare-fun stack_s ((_ BitVec 256) (_ BitVec 256) (_ BitVec 256) (_ BitVec 256) Int (_ BitVec 6)) (_ BitVec 256))
(declare-fun sc_t (Int) (_ BitVec 6))
(declare-fun sc_s (Int) (_ BitVec 6))
(declare-fun used_gas_t ((_ BitVec 256) (_ BitVec 256) (_ BitVec 256) (_ BitVec 256) Int) Int)
(declare-fun used_gas_s ((_ BitVec 256) (_ BitVec 256) (_ BitVec 256) (_ BitVec 256) Int) Int)
(assert
 (exists ((x_0 (_ BitVec 256)) (x_1 (_ BitVec 256)) (x_2 (_ BitVec 256)) (x_3 (_ BitVec 256)) )(let (($x8029 (forall ((w (_ BitVec 256)) )(let ((?x619 (storage_t x_0 x_1 x_2 x_3 4 w)))
 (let ((?x6712 (storage_s x_0 x_1 x_2 x_3 6 w)))
 (= ?x6712 ?x619))))
 ))
 (let (($x7854 (exc_halt_t 4)))
 (let (($x7121 (exc_halt_s 6)))
 (let (($x1652 (= $x7121 $x7854)))
 (let (($x4819 (forall ((n (_ BitVec 6)) )(let ((?x9078 (stack_t x_0 x_1 x_2 x_3 4 n)))
 (let ((?x3384 (stack_s x_0 x_1 x_2 x_3 6 n)))
 (let (($x9090 (= ?x3384 ?x9078)))
 (let ((?x7495 (sc_t 4)))
 (let (($x3509 (bvsle ?x7495 n)))
 (or $x3509 $x9090)))))))
 ))
 (let ((?x7495 (sc_t 4)))
 (let ((?x9114 (sc_s 6)))
 (let (($x9737 (= ?x9114 ?x7495)))
 (let ((?x6031 (used_gas_t x_0 x_1 x_2 x_3 0)))
 (let ((?x6204 (used_gas_s x_0 x_1 x_2 x_3 0)))
 (let (($x4220 (= ?x6204 ?x6031)))
 (let (($x4050 (forall ((w (_ BitVec 256)) )(let ((?x10314 (storage_t x_0 x_1 x_2 x_3 0 w)))
 (let ((?x1177 (storage_s x_0 x_1 x_2 x_3 0 w)))
 (= ?x1177 ?x10314))))
 ))
 (let (($x56 (exc_halt_t 0)))
 (let (($x57 (exc_halt_s 0)))
 (let (($x58 (= $x57 $x56)))
 (let (($x10651 (forall ((n (_ BitVec 6)) )(let ((?x63 (sc_t 0)))
 (let (($x9079 (bvsle ?x63 n)))
 (let ((?x7566 (stack_t x_0 x_1 x_2 x_3 0 n)))
 (let ((?x2207 (stack_s x_0 x_1 x_2 x_3 0 n)))
 (let (($x7288 (= ?x2207 ?x7566)))
 (or $x7288 $x9079)))))))
 ))
 (let ((?x63 (sc_t 0)))
 (let ((?x72 (sc_s 0)))
 (let (($x73 (= ?x72 ?x63)))
 (let (($x11243 (= $x7854 (or (exc_halt_t 3) (not (bvsle (_ bv0 6) (bvadd (_ bv63 6) (sc_t 3))))))))
 (let (($x9198 (forall ((w (_ BitVec 256)) )(let ((?x11421 (storage_t x_0 x_1 x_2 x_3 3 w)))
 (let ((?x619 (storage_t x_0 x_1 x_2 x_3 4 w)))
 (= ?x619 ?x11421))))
 ))
 (let (($x2650 (forall ((n (_ BitVec 6)) )(let ((?x10013 (sc_t 3)))
 (let ((?x9769 (bvadd (_ bv63 6) ?x10013)))
 (let (($x1394 (bvsle ?x9769 n)))
 (let ((?x6452 (stack_t x_0 x_1 x_2 x_3 3 n)))
 (let ((?x9078 (stack_t x_0 x_1 x_2 x_3 4 n)))
 (or (= ?x9078 ?x6452) $x1394)))))))
 ))
 (let (($x11552 (= (used_gas_t x_0 x_1 x_2 x_3 4) (+ 2 (used_gas_t x_0 x_1 x_2 x_3 3)))))
 (let (($x9131 (exc_halt_t 3)))
 (let (($x5844 (= $x9131 (or (exc_halt_t 2) (not (bvsle (_ bv0 6) (bvadd (_ bv62 6) (sc_t 2))))))))
 (let (($x7323 (forall ((w (_ BitVec 256)) )(let ((?x8499 (storage_t x_0 x_1 x_2 x_3 2 w)))
 (let ((?x11421 (storage_t x_0 x_1 x_2 x_3 3 w)))
 (= ?x11421 ?x8499))))
 ))
 (let (($x1562 (forall ((n (_ BitVec 6)) )(let ((?x11248 (sc_t 2)))
 (let ((?x5841 (bvadd (_ bv62 6) ?x11248)))
 (let (($x7314 (bvsle ?x5841 n)))
 (let ((?x9790 (stack_t x_0 x_1 x_2 x_3 2 n)))
 (let ((?x6452 (stack_t x_0 x_1 x_2 x_3 3 n)))
 (or (= ?x6452 ?x9790) $x7314)))))))
 ))
 (let ((?x11248 (sc_t 2)))
 (let ((?x10013 (sc_t 3)))
 (let (($x11942 (= ?x10013 ?x11248)))
 (let ((?x247 (used_gas_t x_0 x_1 x_2 x_3 3)))
 (let ((?x4064 (bvadd (_ bv63 6) ?x11248)))
 (let ((?x7781 (stack_t x_0 x_1 x_2 x_3 2 ?x4064)))
 (let ((?x5841 (bvadd (_ bv62 6) ?x11248)))
 (let ((?x207 (stack_t x_0 x_1 x_2 x_3 2 ?x5841)))
 (let (($x4057 (exc_halt_t 2)))
 (let (($x6378 (= $x4057 (or (exc_halt_t 1) (not (bvsle (_ bv0 6) (bvadd (_ bv61 6) (sc_t 1))))))))
 (let (($x8326 (forall ((w (_ BitVec 256)) )(let ((?x5686 (storage_t x_0 x_1 x_2 x_3 1 w)))
 (let ((?x8499 (storage_t x_0 x_1 x_2 x_3 2 w)))
 (= ?x8499 ?x5686))))
 ))
 (let (($x10735 (forall ((n (_ BitVec 6)) )(let ((?x658 (stack_t x_0 x_1 x_2 x_3 1 n)))
 (let ((?x9790 (stack_t x_0 x_1 x_2 x_3 2 n)))
 (let ((?x9666 (sc_t 1)))
 (let ((?x11645 (bvadd (_ bv61 6) ?x9666)))
 (let (($x5066 (bvsle ?x11645 n)))
 (or $x5066 (= ?x9790 ?x658))))))))
 ))
 (let ((?x9666 (sc_t 1)))
 (let (($x5665 (= ?x11248 ?x9666)))
 (let ((?x5241 (used_gas_t x_0 x_1 x_2 x_3 2)))
 (let ((?x3616 (bvadd (_ bv63 6) ?x9666)))
 (let ((?x11432 (stack_t x_0 x_1 x_2 x_3 1 ?x3616)))
 (let (($x1955 (forall ((w (_ BitVec 256)) )(let ((?x10314 (storage_t x_0 x_1 x_2 x_3 0 w)))
 (let ((?x5686 (storage_t x_0 x_1 x_2 x_3 1 w)))
 (= ?x5686 ?x10314))))
 ))
 (let (($x870 (forall ((n (_ BitVec 6)) )(let ((?x7566 (stack_t x_0 x_1 x_2 x_3 0 n)))
 (let ((?x658 (stack_t x_0 x_1 x_2 x_3 1 n)))
 (or (= ?x658 ?x7566) (bvsle (bvadd (_ bv60 6) (sc_t 0)) n)))))
 ))
 (let ((?x6639 (bvadd (_ bv62 6) ?x9666)))
 (let ((?x9658 (stack_t x_0 x_1 x_2 x_3 1 ?x6639)))
 (let ((?x11645 (bvadd (_ bv61 6) ?x9666)))
 (let ((?x10807 (stack_t x_0 x_1 x_2 x_3 1 ?x11645)))
 (let (($x5427 (= (stack_t x_0 x_1 x_2 x_3 1 (bvadd (_ bv60 6) ?x9666)) (stack_t x_0 x_1 x_2 x_3 0 (bvadd (_ bv63 6) ?x63)))))
 (let (($x6659 (= $x7121 (or (exc_halt_s 5) (not (bvsle (_ bv0 6) (bvadd (_ bv61 6) (sc_s 5))))))))
 (let (($x1727 (forall ((w (_ BitVec 256)) )(let ((?x2152 (storage_s x_0 x_1 x_2 x_3 5 w)))
 (let ((?x6712 (storage_s x_0 x_1 x_2 x_3 6 w)))
 (= ?x6712 ?x2152))))
 ))
 (let (($x2995 (forall ((n (_ BitVec 6)) )(let ((?x2344 (stack_s x_0 x_1 x_2 x_3 5 n)))
 (let ((?x3384 (stack_s x_0 x_1 x_2 x_3 6 n)))
 (or (= ?x3384 ?x2344) (bvsle (bvadd (_ bv61 6) (sc_s 5)) n)))))
 ))
 (let (($x11793 (= (used_gas_s x_0 x_1 x_2 x_3 6) (+ 3 (used_gas_s x_0 x_1 x_2 x_3 5)))))
 (let ((?x4319 (sc_s 5)))
 (let ((?x6485 (bvadd (_ bv62 6) ?x4319)))
 (let ((?x11388 (stack_s x_0 x_1 x_2 x_3 5 ?x6485)))
 (let ((?x1065 (bvadd (_ bv63 6) ?x4319)))
 (let ((?x11147 (stack_s x_0 x_1 x_2 x_3 5 ?x1065)))
 (let (($x3974 (= (stack_s x_0 x_1 x_2 x_3 6 (bvadd (_ bv63 6) ?x9114)) (stack_s x_0 x_1 x_2 x_3 5 (bvadd (_ bv61 6) ?x4319)))))
 (let (($x1862 (exc_halt_s 5)))
 (let (($x6195 (= $x1862 (or (exc_halt_s 4) (not (bvsle (_ bv0 6) (bvadd (_ bv62 6) (sc_s 4))))))))
 (let (($x6247 (forall ((w (_ BitVec 256)) )(let ((?x2148 (storage_s x_0 x_1 x_2 x_3 4 w)))
 (let ((?x2152 (storage_s x_0 x_1 x_2 x_3 5 w)))
 (= ?x2152 ?x2148))))
 ))
 (let (($x3887 (forall ((n (_ BitVec 6)) )(let ((?x9433 (sc_s 4)))
 (let ((?x9053 (bvadd (_ bv62 6) ?x9433)))
 (let (($x3536 (bvsle ?x9053 n)))
 (let ((?x8177 (stack_s x_0 x_1 x_2 x_3 4 n)))
 (let ((?x2344 (stack_s x_0 x_1 x_2 x_3 5 n)))
 (or (= ?x2344 ?x8177) $x3536)))))))
 ))
 (let ((?x9433 (sc_s 4)))
 (let (($x10447 (= ?x4319 ?x9433)))
 (let ((?x7267 (used_gas_s x_0 x_1 x_2 x_3 5)))
 (let (($x9175 (exc_halt_s 4)))
 (let (($x7410 (= $x9175 (or (exc_halt_s 3) (not (bvsle (_ bv0 6) (bvadd (_ bv61 6) (sc_s 3))))))))
 (let (($x6811 (forall ((w (_ BitVec 256)) )(let ((?x9568 (storage_s x_0 x_1 x_2 x_3 3 w)))
 (let ((?x2148 (storage_s x_0 x_1 x_2 x_3 4 w)))
 (= ?x2148 ?x9568))))
 ))
 (let (($x4053 (forall ((n (_ BitVec 6)) )(let ((?x7184 (stack_s x_0 x_1 x_2 x_3 3 n)))
 (let ((?x8177 (stack_s x_0 x_1 x_2 x_3 4 n)))
 (or (= ?x8177 ?x7184) (bvsle (bvadd (_ bv61 6) (sc_s 3)) n)))))
 ))
 (let ((?x3851 (sc_s 3)))
 (let (($x9390 (= ?x9433 ?x3851)))
 (let ((?x10831 (used_gas_s x_0 x_1 x_2 x_3 4)))
 (let ((?x1039 (bvadd (_ bv62 6) ?x3851)))
 (let ((?x6461 (stack_s x_0 x_1 x_2 x_3 3 ?x1039)))
 (let ((?x9053 (bvadd (_ bv62 6) ?x9433)))
 (let ((?x4264 (stack_s x_0 x_1 x_2 x_3 4 ?x9053)))
 (let ((?x998 (bvadd (_ bv63 6) ?x3851)))
 (let ((?x6859 (stack_s x_0 x_1 x_2 x_3 3 ?x998)))
 (let ((?x6083 (bvadd (_ bv63 6) ?x9433)))
 (let ((?x5142 (stack_s x_0 x_1 x_2 x_3 4 ?x6083)))
 (let (($x8103 (exc_halt_s 3)))
 (let (($x7113 (= $x8103 (or (exc_halt_s 2) (not (bvsle (_ bv0 6) (bvadd (_ bv62 6) (sc_s 2))))))))
 (let (($x11116 (forall ((w (_ BitVec 256)) )(let ((?x1907 (storage_s x_0 x_1 x_2 x_3 2 w)))
 (let ((?x9568 (storage_s x_0 x_1 x_2 x_3 3 w)))
 (= ?x9568 ?x1907))))
 ))
 (let (($x4077 (forall ((n (_ BitVec 6)) )(let ((?x2272 (sc_s 2)))
 (let ((?x9266 (bvadd (_ bv62 6) ?x2272)))
 (let (($x9051 (bvsle ?x9266 n)))
 (let ((?x10951 (stack_s x_0 x_1 x_2 x_3 2 n)))
 (let ((?x7184 (stack_s x_0 x_1 x_2 x_3 3 n)))
 (or (= ?x7184 ?x10951) $x9051)))))))
 ))
 (let ((?x2272 (sc_s 2)))
 (let (($x10118 (= ?x3851 ?x2272)))
 (let ((?x1903 (used_gas_s x_0 x_1 x_2 x_3 3)))
 (let (($x10052 (exc_halt_s 2)))
 (let (($x9233 (= $x10052 (or (exc_halt_s 1) (not (bvsle (_ bv0 6) (bvadd (_ bv63 6) (sc_s 1))))))))
 (let (($x4009 (forall ((w (_ BitVec 256)) )(let ((?x2319 (storage_s x_0 x_1 x_2 x_3 1 w)))
 (let ((?x1907 (storage_s x_0 x_1 x_2 x_3 2 w)))
 (= ?x1907 ?x2319))))
 ))
 (let (($x6374 (forall ((n (_ BitVec 6)) )(let ((?x11077 (stack_s x_0 x_1 x_2 x_3 1 n)))
 (let ((?x10951 (stack_s x_0 x_1 x_2 x_3 2 n)))
 (let ((?x154 (sc_s 1)))
 (let ((?x10565 (bvadd (_ bv63 6) ?x154)))
 (let (($x3789 (bvsle ?x10565 n)))
 (or $x3789 (= ?x10951 ?x11077))))))))
 ))
 (let ((?x1580 (used_gas_s x_0 x_1 x_2 x_3 2)))
 (let (($x8780 (exc_halt_s 1)))
 (let (($x3586 (= $x8780 (or $x57 (not (bvsle (_ bv0 6) (bvadd (_ bv62 6) ?x72)))))))
 (let (($x4961 (forall ((w (_ BitVec 256)) )(let ((?x1177 (storage_s x_0 x_1 x_2 x_3 0 w)))
 (let ((?x2319 (storage_s x_0 x_1 x_2 x_3 1 w)))
 (= ?x2319 ?x1177))))
 ))
 (let (($x45 (forall ((n (_ BitVec 6)) )(let ((?x72 (sc_s 0)))
 (let ((?x11002 (bvadd (_ bv62 6) ?x72)))
 (let (($x11492 (bvsle ?x11002 n)))
 (let ((?x2207 (stack_s x_0 x_1 x_2 x_3 0 n)))
 (let ((?x11077 (stack_s x_0 x_1 x_2 x_3 1 n)))
 (or (= ?x11077 ?x2207) $x11492)))))))
 ))
 (let ((?x154 (sc_s 1)))
 (let (($x6926 (= ?x154 ?x72)))
 (let (($x11304 (= (stack_s x_0 x_1 x_2 x_3 1 (bvadd (_ bv62 6) ?x154)) (stack_s x_0 x_1 x_2 x_3 0 (bvadd (_ bv63 6) ?x72)))))
 (let (($x669 (= (stack_s x_0 x_1 x_2 x_3 1 (bvadd (_ bv63 6) ?x154)) (stack_s x_0 x_1 x_2 x_3 0 (bvadd (_ bv62 6) ?x72)))))
 (let (($x5637 (forall ((w (_ BitVec 256)) )(let ((?x1177 (storage_s x_0 x_1 x_2 x_3 0 w)))
 (= ?x1177 (_ bv0 256))))
 ))
 (let (($x2891 (= ?x6204 0)))
 (let (($x10995 (not $x57)))
 (let (($x1793 (= (stack_s x_0 x_1 x_2 x_3 0 (_ bv3 6)) x_3)))
 (let (($x6164 (= (stack_s x_0 x_1 x_2 x_3 0 (_ bv2 6)) x_2)))
 (let (($x5126 (= (stack_s x_0 x_1 x_2 x_3 0 (_ bv1 6)) x_1)))
 (let (($x7952 (= (stack_s x_0 x_1 x_2 x_3 0 (_ bv0 6)) x_0)))
 (let (($x51 (= ?x72 (_ bv4 6))))
 (and $x51 $x7952 $x5126 $x6164 $x1793 $x10995 $x2891 $x5637 $x669 $x11304 (= (used_gas_s x_0 x_1 x_2 x_3 1) (+ 3 ?x6204)) $x6926 $x45 $x4961 $x3586 (= ?x1580 (+ 2 (used_gas_s x_0 x_1 x_2 x_3 1))) (= ?x2272 (bvadd (_ bv63 6) ?x154)) $x6374 $x4009 $x9233 (= ?x6859 (stack_s x_0 x_1 x_2 x_3 2 (bvadd (_ bv62 6) ?x2272))) (= ?x6461 (stack_s x_0 x_1 x_2 x_3 2 (bvadd (_ bv63 6) ?x2272))) (= ?x1903 (+ 3 ?x1580)) $x10118 $x4077 $x11116 $x7113 (= ?x5142 (stack_s x_0 x_1 x_2 x_3 3 (bvadd (_ bv61 6) ?x3851))) (= (stack_s x_0 x_1 x_2 x_3 4 (bvadd (_ bv61 6) ?x9433)) ?x6859) (= ?x4264 ?x6461) (= ?x10831 (+ 3 ?x1903)) $x9390 $x4053 $x6811 $x7410 (= ?x11147 ?x4264) (= ?x11388 ?x5142) (= ?x7267 (+ 3 ?x10831)) $x10447 $x3887 $x6247 $x6195 $x3974 (= (stack_s x_0 x_1 x_2 x_3 6 (bvadd (_ bv61 6) ?x9114)) ?x11147) (= (stack_s x_0 x_1 x_2 x_3 6 (bvadd (_ bv62 6) ?x9114)) ?x11388) $x11793 (= ?x9114 ?x4319) $x2995 $x1727 $x6659 (= ?x11432 (stack_t x_0 x_1 x_2 x_3 0 (bvadd (_ bv60 6) ?x63))) $x5427 (= ?x10807 (stack_t x_0 x_1 x_2 x_3 0 (bvadd (_ bv61 6) ?x63))) (= ?x9658 (stack_t x_0 x_1 x_2 x_3 0 (bvadd (_ bv62 6) ?x63))) (= (used_gas_t x_0 x_1 x_2 x_3 1) (+ 3 ?x6031)) (= ?x9666 ?x63) $x870 $x1955 (= (exc_halt_t 1) (or $x56 (not (bvsle (_ bv0 6) (bvadd (_ bv60 6) ?x63))))) (= ?x7781 ?x10807) (= (stack_t x_0 x_1 x_2 x_3 2 (bvadd (_ bv61 6) ?x11248)) ?x11432) (= ?x207 ?x9658) (= ?x5241 (+ 3 (used_gas_t x_0 x_1 x_2 x_3 1))) $x5665 $x10735 $x8326 $x6378 (= (stack_t x_0 x_1 x_2 x_3 3 (bvadd (_ bv63 6) ?x10013)) ?x207) (= (stack_t x_0 x_1 x_2 x_3 3 (bvadd (_ bv62 6) ?x10013)) ?x7781) (= ?x247 (+ 3 ?x5241)) $x11942 $x1562 $x7323 $x5844 $x11552 (= ?x7495 (bvadd (_ bv63 6) ?x10013)) $x2650 $x9198 $x11243 $x73 $x10651 $x58 $x4050 $x4220 (not (and $x9737 $x4819 $x1652 $x8029)))))))))))))))))))))))))))))))))))))))))))))))))))))))))))))))))))))))))))))))))))))))))))))))))))))))))))))))))))
 )
(check-sat)
(get-proof)
